NAME : instance_11_600
TYPE : TSP
DIMENSION : 11
EDGE_WEIGHT_TYPE : EUC_2D
LOWER : 0
UPPER : 100
NODE_COORD_SECTION
1 36.7294201162 17.1677995706
2 85.1978427498 20.1519794529
3 14.0277848346 74.5255081914
4 98.0061227223 17.6489082631
5 47.8584636236 12.479890394
6 94.7053792886 48.1241507921
7 17.2755992273 22.1487222239
8 44.8467281414 67.4061855301
9 46.4338122169 13.3794032037
10 62.8373464802 63.1077149417
11 45.9689506795 45.3941180138
EOF
